26551 26035 24484 24312 24053 23729 23434 22759 22504 22142 21813 21392 21318 21183 21071 20737 20493 20243 19887 19734 19200 19161 18895 18736 18666 18389 18183 17866 17685 17569 17417 17223 17012 16786 16672 16606 16293 16367 16253 16097 16021 15907 15706 15660 15454 15389 15327 15258 15155 15087 15034 14903 14880 14830 14641 14688 14641 14597 14537 14463 14410 14365 14307 14228 14110 14030 13892 13840 13700 13661 13682 13694 13623 13583 13506 13488 13424 13261 13269 13096 13195 13153 13087 13072 13026 12991 12930 12951 12904 12876 12844 12783 12753 12701 12637 12610 12607 12554 12521 12490 12451 12436 12415 12398 12332 12320 12299 12279 12258 12227 12233 12189 12126 12142 12142 12100 12070 12053 12012 11990 11879 11947 11962 11925 11928 11912 11883 11874 11835 11829 11806 11821 11807 11807 11785 11728 11718 11723 11678 11679 11670 11681 11616 11632 11608 11637 11654 11593 11636 11587 11583 11577 11587 11587 11556 11565 11520 11500 11507 11507 11490 11488 11441 11443 11436 11423 11446 11453 11446 11435 11445 11427 11418 11418 11341 11341 11394 11403 11400 11384 11371 11326 11331 11331 11298 11297 11288 11270 11295 11280 11254 11243 11225 11198 11179 11234 11087 11080 11156 11144 11111 11052 11021 10988 10906 10867 10883 10929 10897 10915 10915 10886 10902 10842 10862 10898 10905 10890 10886 10885 10896 10882 10844 10797 10875 10868 10870 10867 10853 10770 10876 10895 10916 10821 10782 10851 10816 10816 10909 10885 10864 10782 10782 10762 10772 10750 10735 10718 10688 10646 10643 10648 10644 10649 10623 10620 10620 10598 10501 10501 10480 10449 10303 10303 10259 10251 10214 10189 10162 10124 10103 10017 9981 9933 9924 9890 9869 9837 9804 9784 9753 9721 9696 9655 9643 9619 9600 9566 9532 9510 9481 9468 9449 9435 9429 9402 9391 9377 9338 9322 9308 9289 9273 9270 9255 9223 9219 9211 9204 9194 9184 9184 9175 9080 9080 9058 9056 9043 9043 8964 8964 8932 8910 8902 8891 8858 8846 8831 8818 8798 8775 8757 8745 8733 8727 8713 8690 8681 8678 8669 8665 8625 8616 8599 8581 8572 8560 8550 8539 8510 8510 8475 8423 8404 8395 8379 8368 8345 8329 8284 8275 8250 8192 8188 8175 8163 8148 8132 8110 8067 8046 8037 8028 8021 7986 7975 7948 7927 7906 7889 7873 7852 7851 7848 7832 7830 7813 7806 7799 7789 7785 7771 7767 7757 7757 7753 7749 7740 7736 7726 7726 7718 7701 7698 7691 7670 7660 7654 7642 7638 7636 7630 7623 7616 7612 7598 7596 7592 7576 7574 7571 7564 7560 7543 7536 7531 7520 7516 7502 7500 7496 7461 7461 7420 7410 7409 7409 7372 7369 7332 7323 7321 7318 7316 7313 7311 7309 7307 7288 7286 7281 7277 7274 7272 7258 7255 7238 7234 7228 7220 7214 7207 7205 7200 7187 7178 7171 7163 7126 7126 7090 7085 7067 7067 7065 7047 7041 7021 7021 7011 6980 6976 6976 6976 6965 6965 6965 6964 6934 6934 6934 6908 6908 6899 6883 6883 6877 6877 6873 6872 6871 6861 6817 6815 6805 6805 6801 6784 6781 6773 6770 6769 6764 6764 6761 6759 6755 6755 6753 6751 6747 6745 6732 6723 6719 6718 6717 6716 6714 6708 6708 6706 6699 6695 6694 6693 6690 6688 6682 6681 6669 6669 6652 6652 6651 6651 6650 6650 6612 6612 6606 6593 6589 6587 6571 6571 6571 6569 6569 6568 6568 6563 6563 6560 6556 6556 6548 6544 6544 6540 6537 6535 6532 6510 6507 6506 6501 6501 6500 6499 6498 6497 6493 6493 6490 6490 6490 6490 6489 6489 6489 6483 6483 6478 6478 6478 6477 6476 6475 6473 6471 6464 6464 6464 6464 6460 6460 6453 6448 6447 6447 6447 6442 6439 6414 6414 6413 6404 6404 6401 6400 6399 6399 6390 6390 6388 6388 6386 6381 6381 6381 6381 6379 6379 6379 6374 6374 6372 6372 6372 6365 6364 6364 6362 6362 6357 6355 6351 6351 6350 6345 6345 6343 6343 6341 6341 6341 6339 6339 6334 6334 6334 6334 6332 6332 6330 6330 6319 6317 6317 6316 6314 6314 6314 6313 6313 6312 6312 6312 6309 6309 6306 6306 6304 6304 6304 6272 6272 6271 6271 6271 6265 6265 6265 6264 6264 6262 6262 6260 6260 6259 6259 6258 6258 6254 6254 6251 6244 6244 6244 6243 6241 6236 6236 6236 6236 6235 6235 6232 6231 6230 6228 6219 6219 6218 6214 6214 6213 6213 6212 6212 6209 6209 6207 6207 6207 6199 6199 6193 6193 6190 6190 6190 6188 6188 6188 6188 6188 6188 6188 6187 6185 6174 6171 6169 6169 6160 6160 6154 6154 6150 6147 6143 6142 6135 6135 6128 6120 6113 6112 6105 6105 6105 6105 6105 6105 6105 6105 6105 6105 6105 6104 6104 6102 6102 6101 6101 6099 6096 6096 6096 6095 6095 6093 6092 6092 6091 6088 6087 6079 6079 6079 6079 6079 6079 6079 6079 6079 6078 6078 6073 6073 6072 6072 6071 6070 6070 6068 6059 6057 6057 6057 6057 6052 6052 6051 6051 6047 6047 6047 6047 6046 6045 6045 6043 6043 6043 6037 6037 6015 6015 6015 6015 6015 6015 6011 6011 6011 5990 5990 5990 5989 5989 5989 5989 5989 5989 5988 5988 5988 5988 5988 5988 5988 5988 5988 5988 5988 5988 5982 5982 5982 5981 5981 5954 5953 5953 5953 5945 5934 5934 5934 5933 5933 5933 5933 5929 5926 5926 5926 5926 5926 5922 5922 5922 5922 5920 5920 5879 5879 5879 5879 5879 5879 5879 5879 5879 5879 5879 5876 5874 5874 5871 5869 5869 5869 5869 5869 5866 5862 5862 5862 5862 5862 5862 5859 5859 5859 5859 5859 5859 5854 5854 5853 5853 5853 5853 5853 5853 5849 5849 5848 5847 5847 5847 5847 5840 5840 5840 5840 5837 5837 5837 5833 5833 5833 5803 5803 5803 5802 5802 5802 5802 5802 5802 5802 5802 5802 5802 5796 5796 5795 5795 5794 5794 5794 5794 5793 5793 5790 5790 5790 5790 5790 5790 5790 5778 5778 5778 5778 5778 5776 5776 5776 5776 5776 5773 5773 5767 5767 5767 5766 5766 5766 5763 5763 5763 5762 5762 5761 5761 5761 5760 5760 5760 5760 5760 5756 5756 5756 5756 5756 5756 5756 5756 5756 5756 5756 5756 5756 5756 5756 5756 5756 5756 5756 5756 5756 5756 5756 5756 5756 5756 5756 5756 5756 5756 5756 5756 5756 5756 5756 5755 5755 5755 5755 5755 5755 5755 5755 5755 5755 5733 5733 5732 5732 5732 5732 5727 5727 5722 5722 5722 5722 5722 5722 5722 5719 5710 5710 5710 5710 5710 5710 5710 5710 5710 5700 5700 5696 5696 5696 5696 5696 5696 5696 5692 5692 5692 5692 5692 5689 5689 5686 5686 5659 5659 5659 5659 5659 5645 5645 5631 5631 5631 5625 5625 5625 5625 5625 5625 5625 5625 5625 5625 5621 5621 5621 5621 5621 5621 5621 5620 5608 5589 5588 5578 5578 5578 5578 5568 5568 5568 5568 5568 5568 5552 5552 5552 5552 5552 5552 5552 5552 5552 5552 5524 5524 5524 5524 5524 5524 5524 5524 5524 5524 5524 5524 5524 5524 5524 5524 5524 5519 5519 5519 5511 5511 5511 5511 5511 5511 5511 5488 5488 5488 5488 5488 5488 5488 5488 5488 5488 5488 5488 5488 5488 5488 5488 5488 5488 5484 5484 5484 5484 5484 5484 5484 5484 5484 5484 5480 5480 5480 5480 5475 5475 5475 5475 5475 5475 5472 5472 5470 5470 5470 5470 5470 5470 5470 5470 5470 5468 5468 5468 5468 5468 5468 5468 5468 5468 5468 5468 5468 5468 5468 5468 5468 5468 5468 5468 5468 5468 5468 5465 5465 5465 5465 5465 5465 5465 5465 5465 5465 5465 5465 5465 5465 5465 5465 5465 5465 5465 5465 5465 5465 5464 5464 5464 5463 5463 5463 5463 5463 5463 5463 5463 5463 5463 5463 5453 5453 5453 5453 5418 5418 5406 5406 5406 5404 5404 5394 5392 5390 5390 5390 5390 5390 5390 5390 5390 5390 5390 5390 5390 5390 5390 5374 5374 5374 5374 5352 5352 5352 5352 5352 5352 5352 5346 5346 5346 5346 5346 5346 5346 5346 5332 5332 5332 5332 5332 5325 5325 5325 5325 5325 5325 5325 5325 5312 5312 5312 5312 5312 5312 5312 5312 5312 5312 5312 5312 5309 5309 5309 5309 5309 5309 5309 5309 5309 5309 5309 5309 5309 5309 5309 5308 5308 5308 5308 5308 5308 5308 5308 5308 5308 5308 5308 5308 5307 5307 5307 5307 5307 5307 5307 5307 5307 5307 5307 5307 5307 5307 5307 5307 5307 5307 5307 5307 5307 5307 5307 5307 5306 5306 5306 5306 5306 5306 5306 5306 5306 5306 5306 5306 5306 5306 5306 5306 5306 5306 5306 5306 5306 5306 5306 5306 5304 5304 5302 5302 5302 5301 5301 5301 5297 5297 5297 5297 5297 5297 5297 5297 5297 5297 5297 5297 5297 5297 5297 5294 5294 5291 5288 5288 5287 5287 5287 5287 5287 5287 5287 5287 5287 5287 5287 5287 5287 5287 5287 5287 5287 5287 5287 5287 5287 5287 5275 5275 5275 5275 5275 5275 5275 5275 5275 5275 5275 5275 5275 5274 5274 5274 5273 5272 5271 5271 5267 5267 5265 5265 5265 5265 5265 5263 5263 5251 5251 5250 5250 5250 5249 5249 5249 5249 5249 5249 5249 5246 5246 5244 5244 5244 5244 5244 5244 5242 5242 5242 5242 5242 5242 5242 5242 5242 5242 5242 5242 5242 5242 5242 5242 5242 5242 5242 5240 5240 5240 5240 5240 5240 5240 5240 5236 5236 5236 5236 5236 5236 5236 5236 5236 5236 5236 5236 5236 5236 5236 5236 5236 5236 5236 5236 5236 5236 5236 5236 5236 5236 5236 5236 5236 5236 5236 5236 5236 5236 5236 5236 5236 5236 5236 5236 5236 5236 5236 5236 5236 5236 5236 5236 5236 5236 5236 5236 5236 5236 5236 5236 5236 5236 5236 5236 5236 5236 5236 5235 5235 5235 5235 5235 5235 5235 5235 5235 5203 5203 5203 5203 5203 5203 5203 5203 5203 5203 5203 5203 5203 5203 5203 5203 5203 5203 5203 5203 5203 5203 5203 5203 5203 5203 5203 5203 5203 5203 5203 5203 5203 5203 5203 5203 5203 5203 5203 5203 5203 5203 5203 5203 5203 5203 5203 5203 5203 5203 5203 5203 5203 5203 5203 5203 5203 5203 5195 5195 5195 5195 5195 5195 5195 5195 5195 5195 5195 5195 5195 5195 5195 5195 5195 5195 5195 5195 5195 5195 5195 5195 5195 5195 5195 5195 5195 5195 5195 5195 5195 5195 5195 5195 5195 5195 5195 5195 5195 5195 5195 5195 5195 5195 5195 5195 5195 5195 5195 5195 5195 5195 5195 5195 5195 5195 5195 5195 5191 5191 5191 5191 5191 5191 5191 5191 5191 5191 5191 5191 5191 5191 5191 5191 5191 5191 5191 5191 5191 5191 5191 5191 5191 5191 5191 5191 5191 5191 5191 5191 5191 5191 5191 5191 5191 5191 5191 5191 5191 5191 5191 5191 5191 5191 5191 5191 5191 5191 5191 5191 5191 5191 5191 5191 5191 5191 5191 5191 5191 5191 5191 5191 5191 5191 5191 5191 5191 5191 5191 5191 5191 5191 5191 5191 5191 5191 5191 5191 5191 5189 5189 5189 5189 5189 5189 5189 5189 5189 5189 5189 5189 5189 5189 5189 5188 5188 5188 5188 5188 5188 5188 5188 5188 5188 5188 5188 5188 5188 5188 5188 5188 5188 5188 5188 5188 5188 5188 5188 5188 5188 5188 5188 5188 5188 5188 5188 5188 5188 5188 5188 5188 5188 5188 5188 5188 5188 5188 5188 5188 5188 5188 5188 5188 5188 5188 5188 5188 5188 5188 5188 5188 5188 5188 5188 5188 5188 5188 5188 5188 5188 5188 5188 5188 5188 5188 5188 5188 5188 5188 5188 5188 5188 5188 5188 5188 5188 5188 5188 5188 5188 5188 5188 5188 5188 5188 5188 5188 5188 5188 5188 5188 5188 5188 5188 5188 5188 5188 5188 5188 5188 5188 5188 5188 5188 5188 5188 5188 5188 5188 5188 5188 5188 5188 5188 5188 5188 5188 5188 5188 5188 5188 5188 5188 5188 5188 5188 5188 5188 5188 5188 5188 5188 5188 5188 5188 5188 5188 5188 5188 5188 5188 5188 5188 5188 5188 5188 5188 5188 5188 5188 5188 5188 5188 5188 5188 5188 5188 5188 5188 5188 5188 5188 5188 5188 5188 5188 5188 5188 5188 5188 5188 5188 5188 5188 5188 5188 5188 5188 5188 5188 5188 5188 5188 5188 5188 5188 5188 5188 5188 5188 5188 5188 5188 5188 5188 5188 5188 5188 5188 5188 5188 5188 5188 5188 5188 5188 5188 5188 5188 5188 5188 5186 5186 5186 5186 5186 5186 5186 5186 5186 5186 5186 5186 5186 5186 5186 5186 5186 5186 5186 5186 5186 5186 5186 5186 5186 5186 5186 5186 5186 5186 5186 5186 5186 5186 5186 5186 5186 5186 5186 5186 5186 5186 5186 5186 5186 5186 5186 5186 5186 5186 5186 5186 5186 5186 5186 5186 5186 5186 5186 5186 5186 5186 5186 5186 5186 5186 5186 5186 5186 5186 5186 5186 5186 5186 5186 5186 5186 5186 5186 5186 5186 5186 5186 5186 5186 5186 5186 5186 5186 5186 5186 5186 5186 5186 5186 5186 5186 5186 5186 5186 5186 5186 5186 5186 5186 5186 5186 5186 5186 5186 5186 5186 5186 5186 5186 5186 5186 5186 5186 5186 5186 5186 5186 5186 5186 5186 5186 5186 5186 5186 5186 5186 5186 5186 5186 5186 5186 5186 5186 5186 5186 5186 5186 5186 5186 5186 5186 5186 5186 5186 5186 5186 5186 5186 5186 5186 5186 5186 5186 5186 5186 5186 5186 5186 5186 5186 5186 5186 5186 5186 5186 5186 5186 5186 5186 5186 5186 5186 5186 5186 5186 5186 5186 5186 5186 5186 5186 5186 5186 5186 5186 5186 5186 5186 5186 5186 5186 5186 5186 5186 5186 5186 5186 5186 5186 5186 5186 5186 5186 5186 5186 5186 5186 5186 5186 5186 5186 5186 5186 5186 5186 5186 5186 5186 5186 5186 5186 5186 5186 5186 5186 5186 5186 5186 5186 5186 5186 5186 5186 5186 5186 5186 5186 5186 5186 5186 5186 5186 5186 5186 5186 5186 5186 5186 5186 5186 5186 5186 5186 5186 5186 5186 5186 5186 5186 5186 5186 5186 5186 5186 5186 5186 5186 5186 5186 5186 5186 5186 5186 5186 5186 5186 5186 5186 5186 5186 5186 5186 5186 5186 5186 5186 5186 5186 5186 5186 5186 5186 5186 5186 5186 5186 5186 5186 5186 5186 5186 5186 5186 5186 5186 5186 5186 5186 5186 5186 5186 5186 5186 5186 5186 5186 5186 5186 5186 5186 5186 5186 5186 5186 5186 5186 5186 5186 5186 5186 5186 5186 5186 5186 5186 5186 5186 5186 5186 5186 5186 5186 5186 5186 5186 5186 5186 5186 5186 5186 5186 5186 5186 5186 5186 5186 5186 5186 5186 5185 5185 5185 5185 5185 5185 5185 5185 5185 5185 5185 5185 5185 5185 5185 5185 5185 5185 5185 5185 5185 5185 5185 5185 5185 5185 5185 5185 5185 5185 5185 5185 5185 5185 5185 5185 5185 5185 5185 5185 5185 5185 5185 5185 5185 5185 5185 5185 5185 5185 5185 5185 5185 5185 5185 5185 5185 5185 5185 5185 5185 5185 5185 5185 5185 5185 5185 5184 5184 5184 5184 5184 5184 5184 5184 5184 5184 5184 5184 5184 5184 5184 5184 5184 5184 5184 5184 5184 5184 5184 5184 5184 5184 5184 5184 5184 5184 5184 5184 5184 5184 5184 5184 5184 5184 5184 5184 5184 5184 5184 5184 5184 5184 5184 5184 5184 5184 5184 5184 5184 5184 5184 5184 5184 5184 5184 5184 5184 5184 5184 5184 5184 5184 5184 5184 5184 5184 5184 5184 5184 5184 5184 5184 5184 5184 5184 5184 5184 5184 5184 5184 5184 5184 5184 5184 5184 5184 5184 5184 5184 5184 5184 5184 5184 5184 5184 5184 5184 5184 5184 5184 5181 5181 5181 5181 5181 5181 5181 5181 5181 5181 5181 5181 5181 5180 5180 5179 5179 5179 5179 5179 5177 5177 5177 5177 5177 5177 5177 5177 5177 5177 5177 5177 5177 5177 5177 5177 5177 5177 5177 5177 5177 5177 5177 5177 5177 5177 5177 5177 5177 5177 5177 5177 5177 5177 5177 5177 5177 5177 5177 5177 5177 5177 5177 5177 5177 5177 5177 5177 5177 5177 5177 5177 5177 5177 5177 5177 5177 5177 5177 5177 5177 5177 5177 5177 5177 5177 5177 5177 5177 5177 5177 5177 5177 5177 5177 5177 5177 5177 5177 5177 5177 5177 5177 5177 5177 5177 5177 5177 5177 5177 5177 5177 5177 5177 5177 5177 5177 5177 5177 5177 5177 5177 5177 5177 5177 5177 5177 5177 5177 5177 5177 5177 5177 5177 5177 5177 5177 5177 5177 5177 5177 5177 5177 5177 5177 5177 5177 5177 5177 5177 5177 5177 5177 5177 5177 5177 5177 5177 5177 5177 5177 5177 5177 5177 5177 5177 5177 5177 5177 5177 5177 5177 5177 5177 5177 5177 5177 5177 5177 5177 5177 5177 5177 5177 5177 5177 5177 5177 5177 5177 5177 5177 5177 5177 5177 5177 5177 5177 5177 5177 5177 5177 5177 5177 5177 5177 5177 5177 5177 5177 5177 5177 5177 5177 5177 5177 5177 5177 5177 5177 5177 5177 5177 5177 5177 5177 5177 5177 5177 5177 5177 5177 5177 5177 5177 5177 5177 5177 5177 5177 5177 5177 5177 5177 5177 5177 5177 5177 5177 5177 5177 5177 5177 5177 5177 5177 5177 5177 5177 5177 5177 5177 5177 5177 5177 5176 5176 5176 5176 5176 5176 5176 5176 5176 5176 5176 5176 5176 5176 5167 5167 5167 5167 5167 5167 5167 5167 5167 5167 5167 5167 5167 5167 5167 5167 5167 5167 5167 5167 5167 5167 5167 5167 5167 5166 5166 5166 5166 5166 5166 5166 5166 5166 5166 5166 5166 5165 5165 5165 5165 5165 5165 5165 5165 5165 5165 5165 5165 5165 5165 5165 5165 5165 5165 5165 5165 5165 5165 5165 5165 5165 5165 5165 5165 5165 5165 5165 5165 5165 5165 5165 5165 5165 5165 5165 5165 5165 5165 5165 5165 5165 5165 5165 5165 5165 5165 5165 5165 5165 5165 5165 5165 5165 5165 5165 5165 5165 5165 5165 5165 5165 5165 5165 5165 5165 5165 5165 5165 5165 5165 5165 5165 5165 5165 5165 5165 5165 5165 5165 5165 5165 5165 5165 5165 5165 5165 5165 5165 5165 5165 5165 5165 5165 5165 5165 5165 5165 5165 5165 5165 5165 5165 5165 5165 5165 5165 5165 5165 5165 5165 5165 5165 5165 5165 5165 5165 5165 5165 5165 5165 5165 5165 5165 5165 5165 5165 5165 5165 5165 5165 5165 5165 5165 5165 5165 5165 5165 5165 5165 5165 5165 5165 5165 5165 5165 5165 5165 5165 5165 5165 5165 5165 5165 5165 5165 5165 5165 5165 5165 5165 5165 5165 5165 5165 5165 5165 5165 5165 5165 5165 5165 5165 5165 5165 5165 5165 5165 5165 5165 5165 5165 5165 5165 5165 5165 5165 5165 5165 5165 5165 5165 5165 5165 5165 5165 5165 5165 5165 5165 5165 5165 5165 5165 5165 5165 5165 5165 5165 5165 5165 5165 5165 5165 5165 5165 5165 5165 5165 5165 5165 5165 5165 5165 5165 5165 5165 5165 5165 5165 5165 5165 5165 5165 5165 5165 5165 5165 5165 5165 5165 5165 5165 5165 5165 5165 5165 5165 5165 5165 5165 5165 5165 5165 5165 5165 5165 5165 5165 5165 5165 5165 5165 5165 5165 5165 5165 5165 5165 5165 5165 5165 5165 5165 5165 5165 5165 5165 5165 5165 5165 5165 5165 5165 5165 5165 5165 5165 5165 5165 5165 5165 5165 5165 5165 5165 5165 5165 5165 5165 5165 5165 5165 5165 5165 5165 5165 5165 5165 5165 5165 5165 5165 5165 5165 5165 5165 5165 5165 5165 5165 5165 5165 5165 5165 5165 5165 5165 5141 5141 5141 5141 5141 5141 5141 5141 5141 5141 5141 5141 5141 5141 5141 5141 5141 5141 5141 5141 5141 5141 5141 5141 5141 5141 5141 5141 5141 5141 5141 5141 5141 5141 5141 5141 5141 5141 5141 5141 5141 5141 5141 5141 5141 5141 5141 5141 5141 5141 5141 5141 5141 5141 5141 5141 5141 5141 5141 5141 5141 5141 5141 5141 5141 5141 5141 5141 5141 5141 5141 5141 5141 5141 5141 5141 5141 5141 5141 5141 5141 5141 5141 5141 5141 5141 5141 5141 5141 5141 5141 5141 5141 5141 5141 5141 5141 5141 5141 5141 5141 5141 5141 5141 5141 5141 5141 5141 5141 5141 5141 5141 5141 5141 5141 5141 5141 5141 5141 5141 5141 5141 5141 5141 5141 5141 5141 5141 5141 5141 5141 5141 5141 5141 5141 5141 5141 5141 5141 5141 5141 5141 5141 5141 5141 5141 5141 5141 5141 5141 5141 5141 5141 5141 5141 5141 5141 5141 5141 5141 5141 5141 5141 5141 5141 5141 5141 5141 5141 5141 5141 5141 5141 5141 5141 5141 5141 5141 5141 5141 5141 5141 5141 5141 5141 5141 5141 5141 5141 5141 5141 5141 5141 5141 5141 5141 5141 5141 5141 5141 5141 5141 5141 5141 5141 5141 5141 5141 5141 5141 5141 5141 5141 5141 5141 5141 5141 5141 5141 5141 5141 5141 5141 5141 5141 5141 5141 5141 5141 5141 5141 5141 5141 5141 5141 5141 5141 5141 5141 5141 5141 5141 5141 5141 5141 5141 5141 5141 5141 5141 5141 5141 5141 5141 5141 5141 5141 5141 5141 5141 5141 5141 5141 5141 5141 5141 5141 5141 5141 5141 5141 5141 5141 5141 5141 5141 5141 5141 5141 5141 5141 5141 5141 5141 5141 5141 5141 5141 5141 5141 5141 5141 5141 5141 5141 5141 5141 5141 5141 5141 5141 5141 5141 5141 5141 5141 5141 5141 5141 5141 5141 5141 5141 5141 5141 5141 5141 5141 5141 5141 5141 5141 5141 5141 5141 5141 5141 5141 5141 5141 5141 5141 5141 5141 5141 5141 5141 5141 5141 5141 5141 5141 5141 5141 5141 5141 5141 5141 5141 5141 5141 5138 5138 5138 5138 5138 5137 5137 5137 5137 5137 5137 5137 5137 5137 5137 5137 5137 5137 5137 5137 5137 5137 5137 5137 5137 5137 5135 5132 5132 5132 5132 5132 5132 5132 5132 5132 5132 5132 5132 5132 5132 5132 5132 5132 5132 5132 5132 5132 5132 5132 5132 5132 5132 5132 5132 5132 5132 5132 5132 5132 5132 5132 5132 5132 5132 5132 5132 5132 5132 5132 5132 5132 5132 5132 5132 5132 5132 5132 5132 5132 5132 5132 5132 5132 5132 5132 5132 5132 5132 5132 5132 5132 5132 5132 5132 5132 5132 5132 5132 5132 5132 5132 5132 5132 5132 5132 5132 5132 5132 5132 5132 5132 5132 5132 5132 5132 5132 5132 5132 5132 5129 5129 5129 5129 5129 5129 5129 5129 5129 5125 5125 5125 5125 5125 5125 5125 5125 5125 5125 5125 5125 5125 5125 5125 5125 5125 5125 5125 5125 5125 5125 5125 5125 5125 5125 5125 5125 5125 5125 5125 5125 5125 5125 5125 5125 5125 5125 5125 5125 5125 5125 5125 5125 5125 5125 5125 5125 5125 5125 5125 5125 5125 5125 5125 5125 5125 5125 5125 5125 5125 5125 5125 5125 5125 5125 5125 5125 5125 5125 5125 5125 5125 5125 5125 5125 5125 5125 5125 5125 5125 5125 5125 5125 5125 5125 5125 5125 5125 5125 5125 5125 5125 5125 5125 5125 5125 5125 5125 5125 5125 5125 5125 5125 5125 5125 5125 5125 5125 5125 5125 5125 5125 5125 5125 5125 5125 5125 5125 5125 5125 5125 5125 5125 5125 5125 5125 5125 5125 5125 5125 5125 5125 5125 5125 5125 5125 5125 5125 5125 5125 5125 5125 5125 5125 5125 5125 5125 5125 5125 5125 5125 5125 5125 5125 5125 5125 5125 5125 5125 5125 5125 5125 5125 5125 5125 5125 5125 5125 5125 5125 5125 5125 5125 5125 5125 5125 5125 5125 5125 5125 5125 5125 5125 5125 5125 5125 5125 5125 5125 5125 5125 5125 5125 5125 5125 5125 5125 5125 5125 5125 5125 5125 5125 5125 5125 5125 5125 5125 5125 5125 5125 5125 5125 5125 5125 5125 5125 5125 5125 5125 5125 5125 5125 5125 5125 5125 5125 5125 5125 5125 5125 5125 5125 5125 5125 5125 5125 5125 5125 5125 5125 5125 5125 5125 5125 5125 5125 5125 5125 5125 5125 5125 5125 5125 5125 5125 5125 5125 5125 5125 5125 5125 5125 5125 5125 5125 5125 5125 5125 5125 5125 5125 5125 5125 5125 5125 5125 5125 5125 5125 5125 5125 5125 5125 5125 5125 5125 5125 5125 5125 5125 5125 5125 5125 5125 5125 5125 5125 5125 5125 5125 5125 5125 5125 5125 5125 5125 5125 5125 5125 5125 5125 5125 5125 5125 5125 5125 5125 5125 5125 5125 5125 5125 5125 5125 5125 5125 5125 5125 5125 5125 5125 5125 5125 5125 5125 5125 5125 5125 5125 5125 5125 5125 5125 5125 5125 5125 5125 5125 5125 5125 5125 5125 5125 5125 5125 5125 5125 5125 5125 5125 5125 5125 5125 5125 5125 5125 5125 5125 5125 5125 5125 5125 5125 5125 5125 5125 5125 5125 5125 5125 5125 5125 5125 5125 5125 5125 5125 5125 5125 5125 5125 5125 5125 5125 5125 5125 5125 5125 5125 5125 5125 5125 5125 5125 5125 5125 5125 5125 5125 5125 5125 5125 5125 5125 5125 5125 5125 5125 5125 5125 5125 5125 5125 5125 5125 5125 5125 5125 5125 5125 5125 5125 5125 5125 5125 5125 5125 5125 5125 5125 5125 5125 5125 5125 5125 5125 5125 5125 5125 5125 5125 5125 5125 5125 5125 5125 5125 5125 5125 5125 5125 5125 5125 5125 5125 5125 5125 5125 5125 5125 5125 5125 5125 5125 5125 5125 5125 5125 5125 5125 5125 5125 5125 5125 5125 5125 5125 5125 5125 5125 5125 5125 5125 5125 5125 5125 5125 5125 5125 
16665 16199 14729 14550 14380 13895 13296 12782 12404 12037 11457 11293 10906 10503 10403 10099 9819 9524 9274 8993 8533 8354 8179 7888 7739 7433 7291 7036 6795 6597 6528 6347 6114 5951 5865 5742 5485 5387 5289 5193 5049 4896 4825 4726 4558 4430 4400 4249 4200 4021 3977 3964 3821 3768 3739 3677 3641 3574 3514 3439 3400 3355 3290 3207 3089 2996 2901 2842 2772 2733 2699 2683 2608 2574 2492 2458 2387 2339 2278 2223 2179 2148 2105 2066 2034 1998 1955 1946 1885 1839 1801 1773 1722 1696 1647 1593 1593 1538 1512 1482 1469 1422 1413 1394 1375 1354 1327 1313 1308 1269 1255 1225 1215 1193 1179 1156 1134 1111 1097 1064 1001 970 966 948 942 929 928 880 852 845 838 822 822 818 804 797 789 756 741 730 717 709 695 690 687 678 678 667 656 648 644 634 606 606 577 574 570 530 515 504 498 492 489 477 470 469 469 465 462 436 429 418 417 410 407 406 398 396 390 380 370 367 362 356 353 347 341 341 332 330 325 323 314 307 305 301 294 290 282 276 273 272 271 268 265 264 262 255 254 251 246 245 245 236 230 230 207 197 197 196 165 165 163 157 157 155 151 142 141 139 127 96 96 96 91 82 82 80 62 62 49 42 6 6 6 4 4 3 3 2 2 0 0 0 0 0 0 0 0 0 0 0 0 0 0 0 0 0 0 0 0 0 0 0 0 0 0 0 0 0 0 0 0 0 0 0 0 0 0 0 0 0 0 0 0 0 0 0 0 0 0 0 0 0 0 0 0 0 0 0 0 0 0 0 0 0 0 0 0 0 0 0 0 0 0 0 0 0 0 0 0 0 0 0 0 0 0 0 0 0 0 0 0 0 0 0 0 0 0 0 0 0 0 0 0 0 0 0 0 0 0 0 0 0 0 0 0 0 0 0 0 0 0 0 0 0 0 0 0 0 0 0 0 0 0 0 0 0 0 0 0 0 0 0 0 0 0 0 0 0 0 0 0 0 0 0 0 0 0 0 0 0 0 0 0 0 0 0 0 0 0 0 0 0 0 0 0 0 0 0 0 0 0 0 0 0 0 0 0 0 0 0 0 0 0 0 0 0 0 0 0 0 0 0 0 0 0 0 0 0 0 0 0 0 0 0 0 0 0 0 0 0 0 0 0 0 0 0 0 0 0 0 0 0 0 0 0 0 0 0 0 0 0 0 0 0 0 0 0 0 0 0 0 0 0 0 0 0 0 0 0 0 0 0 0 0 0 0 0 0 0 0 0 0 0 0 0 0 0 0 0 0 0 0 0 0 0 0 0 0 0 0 0 0 0 0 0 0 0 0 0 0 0 0 0 0 0 0 0 0 0 0 0 0 0 0 0 0 0 0 0 0 0 0 0 0 0 0 0 0 0 0 0 0 0 0 0 0 0 0 0 0 0 0 0 0 0 0 0 0 0 0 0 0 0 0 0 0 0 0 0 0 0 0 0 0 0 0 0 0 0 0 0 0 0 0 0 0 0 0 0 0 0 0 0 0 0 0 0 0 0 0 0 0 0 0 0 0 0 0 0 0 0 0 0 0 0 0 0 0 0 0 0 0 0 0 0 0 0 0 0 0 0 0 0 0 0 0 0 0 0 0 0 0 0 0 0 0 0 0 0 0 0 0 0 0 0 0 0 0 0 0 0 0 0 0 0 0 0 0 0 0 0 0 0 0 0 0 0 0 0 0 0 0 0 0 0 0 0 0 0 0 0 0 0 0 0 0 0 0 0 0 0 0 0 0 0 0 0 0 0 0 0 0 0 0 0 0 0 0 0 0 0 0 0 0 0 0 0 0 0 0 0 0 0 0 0 0 0 0 0 0 0 0 0 0 0 0 0 0 0 0 0 0 0 0 0 0 0 0 0 0 0 0 0 0 0 0 0 0 0 0 0 0 0 0 0 0 0 0 0 0 0 0 0 0 0 0 0 0 0 0 0 0 0 0 0 0 0 0 0 0 0 0 0 0 0 0 0 0 0 0 0 0 0 0 0 0 0 0 0 0 0 0 0 0 0 0 0 0 0 0 0 0 0 0 0 0 0 0 0 0 0 0 0 0 0 0 0 0 0 0 0 0 0 0 0 0 0 0 0 0 0 0 0 0 0 0 0 0 0 0 0 0 0 0 0 0 0 0 0 0 0 0 0 0 0 0 0 0 0 0 0 0 0 0 0 0 0 0 0 0 0 0 0 0 0 0 0 0 0 0 0 0 0 0 0 0 0 0 0 0 0 0 0 0 0 0 0 0 0 0 0 0 0 0 0 0 0 0 0 0 0 0 0 0 0 0 0 0 0 0 0 0 0 0 0 0 0 0 0 0 0 0 0 0 0 0 0 0 0 0 0 0 0 0 0 0 0 0 0 0 0 0 0 0 0 0 0 0 0 0 0 0 0 0 0 0 0 0 0 0 0 0 0 0 0 0 0 0 0 0 0 0 0 0 0 0 0 0 0 0 0 0 0 0 0 0 0 0 0 0 0 0 0 0 0 0 0 0 0 0 0 0 0 0 0 0 0 0 0 0 0 0 0 0 0 0 0 0 0 0 0 0 0 0 0 0 0 0 0 0 0 0 0 0 0 0 0 0 0 0 0 0 0 0 0 0 0 0 0 0 0 0 0 0 0 0 0 0 0 0 0 0 0 0 0 0 0 0 0 0 0 0 0 0 0 0 0 0 0 0 0 0 0 0 0 0 0 0 0 0 0 0 0 0 0 0 0 0 0 0 0 0 0 0 0 0 0 0 0 0 0 0 0 0 0 0 0 0 0 0 0 0 0 0 0 0 0 0 0 0 0 0 0 0 0 0 0 0 0 0 0 0 0 0 0 0 0 0 0 0 0 0 0 0 0 0 0 0 0 0 0 0 0 0 0 0 0 0 0 0 0 0 0 0 0 0 0 0 0 0 0 0 0 0 0 0 0 0 0 0 0 0 0 0 0 0 0 0 0 0 0 0 0 0 0 0 0 0 0 0 0 0 0 0 0 0 0 0 0 0 0 0 0 0 0 0 0 0 0 0 0 0 0 0 0 0 0 0 0 0 0 0 0 0 0 0 0 0 0 0 0 0 0 0 0 0 0 0 0 0 0 0 0 0 0 0 0 0 0 0 0 0 0 0 0 0 0 0 0 0 0 0 0 0 0 0 0 0 0 0 0 0 0 0 0 0 0 0 0 0 0 0 0 0 0 0 0 0 0 0 0 0 0 0 0 0 0 0 0 0 0 0 0 0 0 0 0 0 0 0 0 0 0 0 0 0 0 0 0 0 0 0 0 0 0 0 0 0 0 0 0 0 0 0 0 0 0 0 0 0 0 0 0 0 0 0 0 0 0 0 0 0 0 0 0 0 0 0 0 0 0 0 0 0 0 0 0 0 0 0 0 0 0 0 0 0 0 0 0 0 0 0 0 0 0 0 0 0 0 0 0 0 0 0 0 0 0 0 0 0 0 0 0 0 0 0 0 0 0 0 0 0 0 0 0 0 0 0 0 0 0 0 0 0 0 0 0 0 0 0 0 0 0 0 0 0 0 0 0 0 0 0 0 0 0 0 0 0 0 0 0 0 0 0 0 0 0 0 0 0 0 0 0 0 0 0 0 0 0 0 0 0 0 0 0 0 0 0 0 0 0 0 0 0 0 0 0 0 0 0 0 0 0 0 0 0 0 0 0 0 0 0 0 0 0 0 0 0 0 0 0 0 0 0 0 0 0 0 0 0 0 0 0 0 0 0 0 0 0 0 0 0 0 0 0 0 0 0 0 0 0 0 0 0 0 0 0 0 0 0 0 0 0 0 0 0 0 0 0 0 0 0 0 0 0 0 0 0 0 0 0 0 0 0 0 0 0 0 0 0 0 0 0 0 0 0 0 0 0 0 0 0 0 0 0 0 0 0 0 0 0 0 0 0 0 0 0 0 0 0 0 0 0 0 0 0 0 0 0 0 0 0 0 0 0 0 0 0 0 0 0 0 0 0 0 0 0 0 0 0 0 0 0 0 0 0 0 0 0 0 0 0 0 0 0 0 0 0 0 0 0 0 0 0 0 0 0 0 0 0 0 0 0 0 0 0 0 0 0 0 0 0 0 0 0 0 0 0 0 0 0 0 0 0 0 0 0 0 0 0 0 0 0 0 0 0 0 0 0 0 0 0 0 0 0 0 0 0 0 0 0 0 0 0 0 0 0 0 0 0 0 0 0 0 0 0 0 0 0 0 0 0 0 0 0 0 0 0 0 0 0 0 0 0 0 0 0 0 0 0 0 0 0 0 0 0 0 0 0 0 0 0 0 0 0 0 0 0 0 0 0 0 0 0 0 0 0 0 0 0 0 0 0 0 0 0 0 0 0 0 0 0 0 0 0 0 0 0 0 0 0 0 0 0 0 0 0 0 0 0 0 0 0 0 0 0 0 0 0 0 0 0 0 0 0 0 0 0 0 0 0 0 0 0 0 0 0 0 0 0 0 0 0 0 0 0 0 0 0 0 0 0 0 0 0 0 0 0 0 0 0 0 0 0 0 0 0 0 0 0 0 0 0 0 0 0 0 0 0 0 0 0 0 0 0 0 0 0 0 0 0 0 0 0 0 0 0 0 0 0 0 0 0 0 0 0 0 0 0 0 0 0 0 0 0 0 0 0 0 0 0 0 0 0 0 0 0 0 0 0 0 0 0 0 0 0 0 0 0 0 0 0 0 0 0 0 0 0 0 0 0 0 0 0 0 0 0 0 0 0 0 0 0 0 0 0 0 0 0 0 0 0 0 0 0 0 0 0 0 0 0 0 0 0 0 0 0 0 0 0 0 0 0 0 0 0 0 0 0 0 0 0 0 0 0 0 0 0 0 0 0 0 0 0 0 0 0 0 0 0 0 0 0 0 0 0 0 0 0 0 0 0 0 0 0 0 0 0 0 0 0 0 0 0 0 0 0 0 0 0 0 0 0 0 0 0 0 0 0 0 0 0 0 0 0 0 0 0 0 0 0 0 0 0 0 0 0 0 0 0 0 0 0 0 0 0 0 0 0 0 0 0 0 0 0 0 0 0 0 0 0 0 0 0 0 0 0 0 0 0 0 0 0 0 0 0 0 0 0 0 0 0 0 0 0 0 0 0 0 0 0 0 0 0 0 0 0 0 0 0 0 0 0 0 0 0 0 0 0 0 0 0 0 0 0 0 0 0 0 0 0 0 0 0 0 0 0 0 0 0 0 0 0 0 0 0 0 0 0 0 0 0 0 0 0 0 0 0 0 0 0 0 0 0 0 0 0 0 0 0 0 0 0 0 0 0 0 0 0 0 0 0 0 0 0 0 0 0 0 0 0 0 0 0 0 0 0 0 0 0 0 0 0 0 0 0 0 0 0 0 0 0 0 0 0 0 0 0 0 0 0 0 0 0 0 0 0 0 0 0 0 0 0 0 0 0 0 0 0 0 0 0 0 0 0 0 0 0 0 0 0 0 0 0 0 0 0 0 0 0 0 0 0 0 0 0 0 0 0 0 0 0 0 0 0 0 0 0 0 0 0 0 0 0 0 0 0 0 0 0 0 0 0 0 0 0 0 0 0 0 0 0 0 0 0 0 0 0 0 0 0 0 0 0 0 0 0 0 0 0 0 0 0 0 0 0 0 0 0 0 0 0 0 0 0 0 0 0 0 0 0 0 0 0 0 0 0 0 0 0 0 0 0 0 0 0 0 0 0 0 0 0 0 0 0 0 0 0 0 0 0 0 0 0 0 0 0 0 0 0 0 0 0 0 0 0 0 0 0 0 0 0 0 0 0 0 0 0 0 0 0 0 0 0 0 0 0 0 0 0 0 0 0 0 0 0 0 0 0 0 0 0 0 0 0 0 0 0 0 0 0 0 0 0 0 0 0 0 0 0 0 0 0 0 0 0 0 0 0 0 0 0 0 0 0 0 0 0 0 0 0 0 0 0 0 0 0 0 0 0 0 0 0 0 0 0 0 0 0 0 0 0 0 0 0 0 0 0 0 0 0 0 0 0 0 0 0 0 0 0 0 0 0 0 0 0 0 0 0 0 0 0 0 0 0 0 0 0 0 0 0 0 0 0 0 0 0 0 0 0 0 0 0 0 0 0 0 0 0 0 0 0 0 0 0 0 0 0 0 0 0 0 0 0 0 0 0 0 0 0 0 0 0 0 0 0 0 0 0 0 0 0 0 0 0 0 0 0 0 0 0 0 0 0 0 0 0 0 0 0 0 0 0 0 0 0 0 0 0 0 0 0 0 0 0 0 0 0 0 0 0 0 0 0 0 0 0 0 0 0 0 0 0 0 0 0 0 0 0 0 0 0 0 0 0 0 0 0 0 0 0 0 0 0 0 0 0 0 0 0 0 0 0 0 0 0 0 0 0 0 0 0 0 0 0 0 0 0 0 0 0 0 0 0 0 0 0 0 0 0 0 0 0 0 0 0 0 0 0 0 0 0 0 0 0 0 0 0 0 0 0 0 0 0 0 0 0 0 0 0 0 0 0 0 0 0 0 0 0 0 0 0 0 0 0 0 0 0 0 0 0 0 0 0 0 0 0 0 0 0 0 0 0 0 0 0 0 0 0 0 0 0 0 0 0 0 0 0 0 0 0 0 0 0 0 0 0 0 0 0 0 0 0 0 0 0 0 0 0 0 0 0 0 0 0 0 0 0 0 0 0 0 0 0 0 0 0 0 0 0 0 0 0 0 0 0 0 0 0 0 0 0 0 0 0 0 0 0 0 0 0 0 0 0 0 0 0 0 0 0 0 0 0 0 0 0 0 0 0 0 0 0 0 0 0 0 0 0 0 0 0 0 0 0 0 0 0 0 0 0 0 0 0 0 0 0 0 0 0 0 0 0 0 0 0 0 0 0 0 0 0 0 0 0 0 0 0 0 0 0 0 0 0 0 0 0 0 0 0 0 0 0 0 0 0 0 0 0 0 0 0 0 0 0 0 0 0 0 0 0 0 0 0 0 0 0 0 0 0 0 0 0 0 0 0 0 0 0 0 0 0 0 0 0 0 0 0 0 0 0 0 0 0 0 0 0 0 0 0 0 0 0 0 0 0 0 0 0 0 0 0 0 0 0 0 0 0 0 0 0 0 0 0 0 0 0 0 0 0 0 0 0 0 0 0 0 0 0 0 0 0 0 0 0 0 0 0 0 0 0 0 0 0 0 0 0 0 0 0 0 0 0 0 0 0 0 0 0 0 0 0 0 0 0 0 0 0 0 0 0 0 0 0 0 0 0 0 0 0 0 0 0 0 0 0 0 0 0 0 0 0 0 0 0 0 0 0 0 0 0 0 0 0 0 0 0 0 0 0 0 0 0 0 0 0 0 0 0 0 0 0 0 0 0 0 0 0 0 0 0 0 0 0 0 0 0 0 0 0 0 0 0 0 0 0 0 0 0 0 0 0 0 0 0 0 0 0 0 0 0 0 0 0 0 0 0 0 0 0 0 0 0 0 0 0 0 0 0 0 0 0 0 0 0 0 0 0 0 0 0 0 0 0 0 0 0 0 0 0 0 0 0 0 0 0 0 0 0 0 0 0 0 0 0 0 0 0 0 0 0 0 0 0 0 0 0 0 0 0 0 0 0 0 0 0 0 0 0 0 0 0 0 0 0 0 0 0 0 0 0 0 0 0 0 0 0 0 0 0 0 0 0 0 0 0 0 0 0 0 0 0 0 0 0 0 0 0 0 0 0 0 0 0 0 0 0 0 0 0 0 0 0 0 0 0 0 0 0 0 0 0 0 0 0 0 0 0 0 0 0 0 0 0 0 0 0 0 0 0 0 0 0 0 0 0 0 0 0 0 0 0 0 0 0 0 0 0 0 0 0 0 0 0 0 0 0 0 0 0 0 0 0 0 0 0 0 0 0 0 0 0 0 0 0 0 0 0 0 0 0 0 0 0 0 0 0 0 0 0 0 0 0 0 0 0 0 0 0 0 0 0 0 0 0 0 0 0 0 0 0 0 0 0 0 0 0 0 0 0 0 0 0 0 0 0 0 0 0 0 0 0 0 0 0 0 0 0 0 0 0 0 0 0 0 0 0 0 0 0 0 0 0 0 0 0 0 0 0 0 0 0 0 0 0 0 0 0 0 0 0 0 0 0 0 0 0 0 0 0 0 0 0 0 0 0 0 0 0 0 0 0 0 0 0 0 0 0 0 0 0 0 0 0 0 0 0 0 0 0 0 0 0 0 0 0 0 0 0 0 0 0 0 0 0 0 0 0 0 0 0 0 0 0 0 0 0 0 0 0 0 0 0 0 0 0 0 0 0 0 0 0 0 0 0 0 0 0 0 0 0 0 0 0 0 0 0 0 0 0 0 0 0 0 0 0 0 0 0 0 0 0 0 0 0 0 0 0 0 0 0 0 0 0 0 0 0 0 0 0 0 0 0 0 0 0 0 0 0 0 0 0 0 0 0 0 0 0 0 0 0 0 0 0 0 0 0 0 0 0 0 0 0 0 0 0 0 0 0 0 0 0 0 0 0 0 0 0 0 0 0 0 0 0 0 0 0 0 0 0 0 0 0 0 0 0 0 0 0 0 0 0 0 0 0 0 0 0 0 0 0 0 0 0 0 0 0 0 0 0 0 0 0 0 0 0 0 0 0 0 0 0 0 0 0 0 0 0 0 0 0 0 0 0 0 0 0 0 0 0 0 0 0 0 0 0 0 0 0 0 0 0 0 0 0 0 0 0 0 0 0 0 0 0 0 0 0 0 0 0 0 0 0 0 0 0 0 0 0 0 0 0 0 0 0 0 0 0 0 0 0 0 0 0 0 0 0 0 0 0 0 0 0 0 0 0 0 0 0 0 0 0 0 0 0 0 0 0 0 0 0 0 0 0 0 0 0 0 0 0 0 0 0 0 0 0 0 0 0 0 0 0 0 0 0 0 0 0 0 0 0 0 0 0 0 0 0 0 0 0 0 0 0 0 0 0 0 0 0 0 0 0 0 0 0 0 0 0 0 0 0 0 0 0 0 0 0 0 0 0 0 0 0 0 0 0 0 0 0 0 0 0 0 0 0 0 0 0 0 0 0 0 0 0 0 0 0 0 0 0 0 0 0 0 0 0 0 0 0 0 0 0 0 0 0 0 0 0 0 0 0 0 0 0 0 0 0 0 0 0 0 0 0 0 0 0 0 0 0 0 0 0 0 0 0 0 0 0 0 0 0 0 0 0 0 0 0 0 0 0 0 0 0 0 0 0 0 0 0 0 0 0 0 0 0 0 0 0 0 0 0 0 0 0 0 0 0 0 0 0 0 0 0 0 0 0 0 0 0 0 0 0 0 0 0 0 0 0 0 0 0 0 0 0 0 0 0 0 0 0 0 0 0 0 0 0 0 0 0 0 0 0 0 0 0 0 0 0 0 0 0 0 0 0 0 0 0 0 0 0 0 0 0 0 0 0 0 0 0 0 0 0 0 0 0 0 0 0 0 0 0 0 0 0 0 0 0 0 0 0 0 0 0 0 0 0 0 0 0 0 0 0 0 0 0 0 0 0 0 0 0 0 0 0 0 0 0 0 0 0 0 0 0 0 0 0 0 0 0 0 0 0 0 0 0 0 0 0 0 